Minimize
	value: tt

Subject to
tt + 2000 s_1_1 > 0
tt - t_1_1 - 2002.500000 s_1_1 + 2.500000 s_1_6 > -1931.885400
tt + 2000 s_2_1 > 0
tt - t_2_1 - 2005.000000 s_2_1 + 5.000000 s_2_6 > -1959.870100
tt + 2000 s_1_2 > 0
tt - t_1_2 - 2002.500000 s_1_2 + 2.500000 s_1_7 > -1921.701800
tt + 2000 s_2_2 > 0
tt - t_2_2 - 2005.000000 s_2_2 + 5.000000 s_2_7 > -1955.059200
tt + 2000 s_1_3 > 0
tt - t_1_3 - 2002.500000 s_1_3 + 2.500000 s_1_7 > -1886.628400
tt + 2000 s_2_3 > 0
tt - t_2_3 - 2005.000000 s_2_3 + 5.000000 s_2_7 > -1932.855400
tt + 2000 s_1_4 > 0
tt - t_1_4 - 2027.253800 s_1_4 + 27.253800 s_1_7 > -1941.794000
tt + 2000 s_2_4 > 0
tt - t_2_4 - 2054.507600 s_2_4 + 54.507600 s_2_7 > -1964.684600
tt + 2000 s_1_5 > 0
tt - t_1_5 - 2010.000000 s_1_5 + 10.000000 s_1_7 > -1918.947400
tt + 2000 s_2_5 > 0
tt - t_2_5 - 2020.000000 s_2_5 + 20.000000 s_2_7 > -1951.838400
tt + 2000 s_1_6 > 0
tt - t_1_6 - 2000.000000 s_1_6 > -1735.290800
tt + 2000 s_2_6 > 0
tt - t_2_6 - 2000.000000 s_2_6 > -1888.248200
tt + 2000 s_1_7 > 0
tt - t_1_7 - 2000.000000 s_1_7 > -1727.483000
tt + 2000 s_2_7 > 0
tt - t_2_7 - 2000.000000 s_2_7 > -1887.901800
tt + 2000 s_1_8 > 0
tt - t_1_8 - 2222.538000 s_1_8 + 222.538000 s_1_4 > -1997.759400
tt + 2000 s_2_8 > 0
tt - t_2_8 - 2445.076000 s_2_8 + 445.076000 s_2_4 > -1967.575400
s_1_1 + s_2_1  = 1
s_1_2 + s_2_2  = 1
s_1_3 + s_2_3  = 1
s_1_4 + s_2_4  = 1
s_1_5 + s_2_5  = 1
s_1_6 + s_2_6  = 1
s_1_7 + s_2_7  = 1
s_1_8 + s_2_8  = 1
t_1_1 - t_1_2 + 2000.000000 u_1_1_2 - 2.500000 s_1_2 + 2.500000 s_1_7 > 78.298200
t_1_2 - t_1_1 - 2000.000000 u_1_1_2 > -1931.885400
t_2_1 - t_2_2 + 2000.000000 u_2_1_2 - 5.000000 s_2_2 + 5.000000 s_2_7 > 44.940800
t_2_2 - t_2_1 - 2000.000000 u_2_1_2 > -1959.870100
t_1_1 - t_1_3 + 2000.000000 u_1_1_3 - 2.500000 s_1_3 + 2.500000 s_1_7 > 113.371600
t_1_3 - t_1_1 - 2000.000000 u_1_1_3 > -1931.885400
t_2_1 - t_2_3 + 2000.000000 u_2_1_3 - 5.000000 s_2_3 + 5.000000 s_2_7 > 67.144600
t_2_3 - t_2_1 - 2000.000000 u_2_1_3 > -1959.870100
t_1_1 - t_1_4 + 2000.000000 u_1_1_4 - 13.626900 s_1_4 + 13.626900 s_1_7 > 58.206000
t_1_4 - t_1_1 - 2000.000000 u_1_1_4 > -1931.885400
t_2_1 - t_2_4 + 2000.000000 u_2_1_4 - 27.253800 s_2_4 + 27.253800 s_2_7 > 35.315400
t_2_4 - t_2_1 - 2000.000000 u_2_1_4 > -1959.870100
t_1_1 - t_1_5 + 2000.000000 u_1_1_5 - 5.000000 s_1_5 + 5.000000 s_1_7 > 81.052600
t_1_5 - t_1_1 - 2000.000000 u_1_1_5 > -1931.885400
t_2_1 - t_2_5 + 2000.000000 u_2_1_5 - 10.000000 s_2_5 + 10.000000 s_2_7 > 48.161600
t_2_5 - t_2_1 - 2000.000000 u_2_1_5 > -1959.870100
t_1_1 - t_1_6 - 2000.000000 s_1_6 > -1686.835522
t_1_1 - t_2_6 - 2000.000000 s_2_6 > -1791.337644
t_2_1 - t_1_6 - 2000.000000 s_1_6 > -1686.835522
t_2_1 - t_2_6 - 2000.000000 s_2_6 > -1791.337644
t_1_1 - t_1_7 + 2000.000000 u_1_1_7 > 272.517000
t_1_7 - t_1_1 - 2000.000000 u_1_1_7 > -1931.885400
t_2_1 - t_2_7 + 2000.000000 u_2_1_7 > 112.098200
t_2_7 - t_2_1 - 2000.000000 u_2_1_7 > -1959.870100
t_1_8 - t_1_1 - 2000.000000 s_1_1 > -1929.385400
t_1_8 - t_2_1 - 2000.000000 s_2_1 > -1954.870100
t_2_8 - t_1_1 - 2000.000000 s_1_1 > -1929.385400
t_2_8 - t_2_1 - 2000.000000 s_2_1 > -1954.870100
t_1_2 - t_1_1 + 2000.000000 u_1_2_1 - 2.500000 s_1_1 + 2.500000 s_1_6 > 68.114600
t_1_1 - t_1_2 - 2000.000000 u_1_2_1 > -1921.701800
t_2_2 - t_2_1 + 2000.000000 u_2_2_1 - 5.000000 s_2_1 + 5.000000 s_2_6 > 40.129900
t_2_1 - t_2_2 - 2000.000000 u_2_2_1 > -1955.059200
t_1_2 - t_1_3 + 2000.000000 u_1_2_3 - 2.500000 s_1_3 + 2.500000 s_1_7 > 113.371600
t_1_3 - t_1_2 - 2000.000000 u_1_2_3 > -1921.701800
t_2_2 - t_2_3 + 2000.000000 u_2_2_3 - 5.000000 s_2_3 + 5.000000 s_2_7 > 67.144600
t_2_3 - t_2_2 - 2000.000000 u_2_2_3 > -1955.059200
t_1_2 - t_1_4 + 2000.000000 u_1_2_4 - 13.626900 s_1_4 + 13.626900 s_1_7 > 58.206000
t_1_4 - t_1_2 - 2000.000000 u_1_2_4 > -1921.701800
t_2_2 - t_2_4 + 2000.000000 u_2_2_4 - 27.253800 s_2_4 + 27.253800 s_2_7 > 35.315400
t_2_4 - t_2_2 - 2000.000000 u_2_2_4 > -1955.059200
t_1_2 - t_1_5 + 2000.000000 u_1_2_5 - 5.000000 s_1_5 + 5.000000 s_1_7 > 81.052600
t_1_5 - t_1_2 - 2000.000000 u_1_2_5 > -1921.701800
t_2_2 - t_2_5 + 2000.000000 u_2_2_5 - 10.000000 s_2_5 + 10.000000 s_2_7 > 48.161600
t_2_5 - t_2_2 - 2000.000000 u_2_2_5 > -1955.059200
t_1_2 - t_1_6 + 2000.000000 u_1_2_6 > 264.709200
t_1_6 - t_1_2 - 2000.000000 u_1_2_6 > -1921.701800
t_2_2 - t_2_6 + 2000.000000 u_2_2_6 > 111.751800
t_2_6 - t_2_2 - 2000.000000 u_2_2_6 > -1955.059200
t_1_2 - t_1_7 - 2000.000000 s_1_7 > -1679.027722
t_1_2 - t_2_7 - 2000.000000 s_2_7 > -1790.991244
t_2_2 - t_1_7 - 2000.000000 s_1_7 > -1679.027722
t_2_2 - t_2_7 - 2000.000000 s_2_7 > -1790.991244
t_1_8 - t_1_2 - 2000.000000 s_1_2 > -1919.201800
t_1_8 - t_2_2 - 2000.000000 s_2_2 > -1950.059200
t_2_8 - t_1_2 - 2000.000000 s_1_2 > -1919.201800
t_2_8 - t_2_2 - 2000.000000 s_2_2 > -1950.059200
t_1_3 - t_1_1 + 2000.000000 u_1_3_1 - 2.500000 s_1_1 + 2.500000 s_1_6 > 68.114600
t_1_1 - t_1_3 - 2000.000000 u_1_3_1 > -1886.628400
t_2_3 - t_2_1 + 2000.000000 u_2_3_1 - 5.000000 s_2_1 + 5.000000 s_2_6 > 40.129900
t_2_1 - t_2_3 - 2000.000000 u_2_3_1 > -1932.855400
t_1_3 - t_1_2 + 2000.000000 u_1_3_2 - 2.500000 s_1_2 + 2.500000 s_1_7 > 78.298200
t_1_2 - t_1_3 - 2000.000000 u_1_3_2 > -1886.628400
t_2_3 - t_2_2 + 2000.000000 u_2_3_2 - 5.000000 s_2_2 + 5.000000 s_2_7 > 44.940800
t_2_2 - t_2_3 - 2000.000000 u_2_3_2 > -1932.855400
t_1_4 - t_1_3 - 2000.000000 s_1_3 > -1884.128400
t_1_4 - t_2_3 - 2000.000000 s_2_3 > -1927.855400
t_2_4 - t_1_3 - 2000.000000 s_1_3 > -1884.128400
t_2_4 - t_2_3 - 2000.000000 s_2_3 > -1927.855400
t_1_3 - t_1_5 + 2000.000000 u_1_3_5 - 5.000000 s_1_5 + 5.000000 s_1_7 > 81.052600
t_1_5 - t_1_3 - 2000.000000 u_1_3_5 > -1886.628400
t_2_3 - t_2_5 + 2000.000000 u_2_3_5 - 10.000000 s_2_5 + 10.000000 s_2_7 > 48.161600
t_2_5 - t_2_3 - 2000.000000 u_2_3_5 > -1932.855400
t_1_3 - t_1_6 + 2000.000000 u_1_3_6 > 264.709200
t_1_6 - t_1_3 - 2000.000000 u_1_3_6 > -1886.628400
t_2_3 - t_2_6 + 2000.000000 u_2_3_6 > 111.751800
t_2_6 - t_2_3 - 2000.000000 u_2_3_6 > -1932.855400
t_1_3 - t_1_7 - 2000.000000 s_1_7 > -1679.027722
t_1_3 - t_2_7 - 2000.000000 s_2_7 > -1790.991244
t_2_3 - t_1_7 - 2000.000000 s_1_7 > -1679.027722
t_2_3 - t_2_7 - 2000.000000 s_2_7 > -1790.991244
t_1_8 - t_1_3 - 2000.000000 s_1_3 > -1884.128400
t_1_8 - t_2_3 - 2000.000000 s_2_3 > -1927.855400
t_2_8 - t_1_3 - 2000.000000 s_1_3 > -1884.128400
t_2_8 - t_2_3 - 2000.000000 s_2_3 > -1927.855400
t_1_4 - t_1_1 + 2000.000000 u_1_4_1 - 2.500000 s_1_1 + 2.500000 s_1_6 > 68.114600
t_1_1 - t_1_4 - 2000.000000 u_1_4_1 > -1941.794000
t_2_4 - t_2_1 + 2000.000000 u_2_4_1 - 5.000000 s_2_1 + 5.000000 s_2_6 > 40.129900
t_2_1 - t_2_4 - 2000.000000 u_2_4_1 > -1964.684600
t_1_4 - t_1_2 + 2000.000000 u_1_4_2 - 2.500000 s_1_2 + 2.500000 s_1_7 > 78.298200
t_1_2 - t_1_4 - 2000.000000 u_1_4_2 > -1941.794000
t_2_4 - t_2_2 + 2000.000000 u_2_4_2 - 5.000000 s_2_2 + 5.000000 s_2_7 > 44.940800
t_2_2 - t_2_4 - 2000.000000 u_2_4_2 > -1964.684600
t_1_4 - t_1_3 - 2000.000000 s_1_3 > -1884.128400
t_1_4 - t_2_3 - 2000.000000 s_2_3 > -1927.855400
t_2_4 - t_1_3 - 2000.000000 s_1_3 > -1884.128400
t_2_4 - t_2_3 - 2000.000000 s_2_3 > -1927.855400
t_1_4 - t_1_5 + 2000.000000 u_1_4_5 - 5.000000 s_1_5 + 5.000000 s_1_7 > 81.052600
t_1_5 - t_1_4 - 2000.000000 u_1_4_5 > -1941.794000
t_2_4 - t_2_5 + 2000.000000 u_2_4_5 - 10.000000 s_2_5 + 10.000000 s_2_7 > 48.161600
t_2_5 - t_2_4 - 2000.000000 u_2_4_5 > -1964.684600
t_1_4 - t_1_6 + 2000.000000 u_1_4_6 > 264.709200
t_1_6 - t_1_4 - 2000.000000 u_1_4_6 > -1941.794000
t_2_4 - t_2_6 + 2000.000000 u_2_4_6 > 111.751800
t_2_6 - t_2_4 - 2000.000000 u_2_4_6 > -1964.684600
t_1_4 - t_1_7 - 2000.000000 s_1_7 > -1679.027722
t_1_4 - t_2_7 - 2000.000000 s_2_7 > -1790.991244
t_2_4 - t_1_7 - 2000.000000 s_1_7 > -1679.027722
t_2_4 - t_2_7 - 2000.000000 s_2_7 > -1790.991244
t_1_8 - t_1_4 - 2000.000000 s_1_4 > -1928.167100
t_1_8 - t_2_4 - 2000.000000 s_2_4 > -1937.430800
t_2_8 - t_1_4 - 2000.000000 s_1_4 > -1928.167100
t_2_8 - t_2_4 - 2000.000000 s_2_4 > -1937.430800
t_1_5 - t_1_1 + 2000.000000 u_1_5_1 - 2.500000 s_1_1 + 2.500000 s_1_6 > 68.114600
t_1_1 - t_1_5 - 2000.000000 u_1_5_1 > -1918.947400
t_2_5 - t_2_1 + 2000.000000 u_2_5_1 - 5.000000 s_2_1 + 5.000000 s_2_6 > 40.129900
t_2_1 - t_2_5 - 2000.000000 u_2_5_1 > -1951.838400
t_1_5 - t_1_2 + 2000.000000 u_1_5_2 - 2.500000 s_1_2 + 2.500000 s_1_7 > 78.298200
t_1_2 - t_1_5 - 2000.000000 u_1_5_2 > -1918.947400
t_2_5 - t_2_2 + 2000.000000 u_2_5_2 - 5.000000 s_2_2 + 5.000000 s_2_7 > 44.940800
t_2_2 - t_2_5 - 2000.000000 u_2_5_2 > -1951.838400
t_1_5 - t_1_3 + 2000.000000 u_1_5_3 - 2.500000 s_1_3 + 2.500000 s_1_7 > 113.371600
t_1_3 - t_1_5 - 2000.000000 u_1_5_3 > -1918.947400
t_2_5 - t_2_3 + 2000.000000 u_2_5_3 - 5.000000 s_2_3 + 5.000000 s_2_7 > 67.144600
t_2_3 - t_2_5 - 2000.000000 u_2_5_3 > -1951.838400
t_1_5 - t_1_4 + 2000.000000 u_1_5_4 - 13.626900 s_1_4 + 13.626900 s_1_7 > 58.206000
t_1_4 - t_1_5 - 2000.000000 u_1_5_4 > -1918.947400
t_2_5 - t_2_4 + 2000.000000 u_2_5_4 - 27.253800 s_2_4 + 27.253800 s_2_7 > 35.315400
t_2_4 - t_2_5 - 2000.000000 u_2_5_4 > -1951.838400
t_1_5 - t_1_6 - 2000.000000 s_1_6 > -1686.835522
t_1_5 - t_2_6 - 2000.000000 s_2_6 > -1791.337644
t_2_5 - t_1_6 - 2000.000000 s_1_6 > -1686.835522
t_2_5 - t_2_6 - 2000.000000 s_2_6 > -1791.337644
t_1_5 - t_1_7 - 2000.000000 s_1_7 > -1679.027722
t_1_5 - t_2_7 - 2000.000000 s_2_7 > -1790.991244
t_2_5 - t_1_7 - 2000.000000 s_1_7 > -1679.027722
t_2_5 - t_2_7 - 2000.000000 s_2_7 > -1790.991244
t_1_8 - t_1_5 - 2000.000000 s_1_5 > -1913.947400
t_1_8 - t_2_5 - 2000.000000 s_2_5 > -1941.838400
t_2_8 - t_1_5 - 2000.000000 s_1_5 > -1913.947400
t_2_8 - t_2_5 - 2000.000000 s_2_5 > -1941.838400
t_1_1 - t_1_6 - 2000.000000 s_1_6 > -1686.835522
t_1_1 - t_2_6 - 2000.000000 s_2_6 > -1791.337644
t_2_1 - t_1_6 - 2000.000000 s_1_6 > -1686.835522
t_2_1 - t_2_6 - 2000.000000 s_2_6 > -1791.337644
t_1_6 - t_1_2 + 2000.000000 u_1_6_2 - 2.500000 s_1_2 + 2.500000 s_1_7 > 78.298200
t_1_2 - t_1_6 - 2000.000000 u_1_6_2 > -1735.290800
t_2_6 - t_2_2 + 2000.000000 u_2_6_2 - 5.000000 s_2_2 + 5.000000 s_2_7 > 44.940800
t_2_2 - t_2_6 - 2000.000000 u_2_6_2 > -1888.248200
t_1_6 - t_1_3 + 2000.000000 u_1_6_3 - 2.500000 s_1_3 + 2.500000 s_1_7 > 113.371600
t_1_3 - t_1_6 - 2000.000000 u_1_6_3 > -1735.290800
t_2_6 - t_2_3 + 2000.000000 u_2_6_3 - 5.000000 s_2_3 + 5.000000 s_2_7 > 67.144600
t_2_3 - t_2_6 - 2000.000000 u_2_6_3 > -1888.248200
t_1_6 - t_1_4 + 2000.000000 u_1_6_4 - 13.626900 s_1_4 + 13.626900 s_1_7 > 58.206000
t_1_4 - t_1_6 - 2000.000000 u_1_6_4 > -1735.290800
t_2_6 - t_2_4 + 2000.000000 u_2_6_4 - 27.253800 s_2_4 + 27.253800 s_2_7 > 35.315400
t_2_4 - t_2_6 - 2000.000000 u_2_6_4 > -1888.248200
t_1_5 - t_1_6 - 2000.000000 s_1_6 > -1686.835522
t_1_5 - t_2_6 - 2000.000000 s_2_6 > -1791.337644
t_2_5 - t_1_6 - 2000.000000 s_1_6 > -1686.835522
t_2_5 - t_2_6 - 2000.000000 s_2_6 > -1791.337644
t_1_6 - t_1_7 + 2000.000000 u_1_6_7 > 272.517000
t_1_7 - t_1_6 - 2000.000000 u_1_6_7 > -1735.290800
t_2_6 - t_2_7 + 2000.000000 u_2_6_7 > 112.098200
t_2_7 - t_2_6 - 2000.000000 u_2_6_7 > -1888.248200
t_1_7 - t_1_1 + 2000.000000 u_1_7_1 - 2.500000 s_1_1 + 2.500000 s_1_6 > 68.114600
t_1_1 - t_1_7 - 2000.000000 u_1_7_1 > -1727.483000
t_2_7 - t_2_1 + 2000.000000 u_2_7_1 - 5.000000 s_2_1 + 5.000000 s_2_6 > 40.129900
t_2_1 - t_2_7 - 2000.000000 u_2_7_1 > -1887.901800
t_1_2 - t_1_7 - 2000.000000 s_1_7 > -1679.027722
t_1_2 - t_2_7 - 2000.000000 s_2_7 > -1790.991244
t_2_2 - t_1_7 - 2000.000000 s_1_7 > -1679.027722
t_2_2 - t_2_7 - 2000.000000 s_2_7 > -1790.991244
t_1_3 - t_1_7 - 2000.000000 s_1_7 > -1679.027722
t_1_3 - t_2_7 - 2000.000000 s_2_7 > -1790.991244
t_2_3 - t_1_7 - 2000.000000 s_1_7 > -1679.027722
t_2_3 - t_2_7 - 2000.000000 s_2_7 > -1790.991244
t_1_4 - t_1_7 - 2000.000000 s_1_7 > -1679.027722
t_1_4 - t_2_7 - 2000.000000 s_2_7 > -1790.991244
t_2_4 - t_1_7 - 2000.000000 s_1_7 > -1679.027722
t_2_4 - t_2_7 - 2000.000000 s_2_7 > -1790.991244
t_1_5 - t_1_7 - 2000.000000 s_1_7 > -1679.027722
t_1_5 - t_2_7 - 2000.000000 s_2_7 > -1790.991244
t_2_5 - t_1_7 - 2000.000000 s_1_7 > -1679.027722
t_2_5 - t_2_7 - 2000.000000 s_2_7 > -1790.991244
t_1_7 - t_1_6 + 2000.000000 u_1_7_6 > 264.709200
t_1_6 - t_1_7 - 2000.000000 u_1_7_6 > -1727.483000
t_2_7 - t_2_6 + 2000.000000 u_2_7_6 > 111.751800
t_2_6 - t_2_7 - 2000.000000 u_2_7_6 > -1887.901800
t_1_8 - t_1_1 - 2000.000000 s_1_1 > -1929.385400
t_1_8 - t_2_1 - 2000.000000 s_2_1 > -1954.870100
t_2_8 - t_1_1 - 2000.000000 s_1_1 > -1929.385400
t_2_8 - t_2_1 - 2000.000000 s_2_1 > -1954.870100
t_1_8 - t_1_2 - 2000.000000 s_1_2 > -1919.201800
t_1_8 - t_2_2 - 2000.000000 s_2_2 > -1950.059200
t_2_8 - t_1_2 - 2000.000000 s_1_2 > -1919.201800
t_2_8 - t_2_2 - 2000.000000 s_2_2 > -1950.059200
t_1_8 - t_1_3 - 2000.000000 s_1_3 > -1884.128400
t_1_8 - t_2_3 - 2000.000000 s_2_3 > -1927.855400
t_2_8 - t_1_3 - 2000.000000 s_1_3 > -1884.128400
t_2_8 - t_2_3 - 2000.000000 s_2_3 > -1927.855400
t_1_8 - t_1_4 - 2000.000000 s_1_4 > -1928.167100
t_1_8 - t_2_4 - 2000.000000 s_2_4 > -1937.430800
t_2_8 - t_1_4 - 2000.000000 s_1_4 > -1928.167100
t_2_8 - t_2_4 - 2000.000000 s_2_4 > -1937.430800
t_1_8 - t_1_5 - 2000.000000 s_1_5 > -1913.947400
t_1_8 - t_2_5 - 2000.000000 s_2_5 > -1941.838400
t_2_8 - t_1_5 - 2000.000000 s_1_5 > -1913.947400
t_2_8 - t_2_5 - 2000.000000 s_2_5 > -1941.838400
Binary
s_1_1
s_2_1
s_1_2
s_2_2
s_1_3
s_2_3
s_1_4
s_2_4
s_1_5
s_2_5
s_1_6
s_2_6
s_1_7
s_2_7
s_1_8
s_2_8
u_1_1_2
u_2_1_2
u_1_1_3
u_2_1_3
u_1_1_4
u_2_1_4
u_1_1_5
u_2_1_5
u_1_1_7
u_2_1_7
u_1_2_1
u_2_2_1
u_1_2_3
u_2_2_3
u_1_2_4
u_2_2_4
u_1_2_5
u_2_2_5
u_1_2_6
u_2_2_6
u_1_3_1
u_2_3_1
u_1_3_2
u_2_3_2
u_1_3_5
u_2_3_5
u_1_3_6
u_2_3_6
u_1_4_1
u_2_4_1
u_1_4_2
u_2_4_2
u_1_4_5
u_2_4_5
u_1_4_6
u_2_4_6
u_1_5_1
u_2_5_1
u_1_5_2
u_2_5_2
u_1_5_3
u_2_5_3
u_1_5_4
u_2_5_4
u_1_6_2
u_2_6_2
u_1_6_3
u_2_6_3
u_1_6_4
u_2_6_4
u_1_6_7
u_2_6_7
u_1_7_1
u_2_7_1
u_1_7_6
u_2_7_6

End
